
Log started (V12.10.0.0) Fri Apr  9 00:39:23 2021

Warning, line 1005: Name 's110' does not exist.

Problem 'asset.lp' read.
Read time = 0.00 sec. (0.07 ticks)
New value for default parallel thread count: 1
New value for time limit in seconds: 200
Version identifier: 12.10.0.0 | 2019-11-26 | 843d4de
CPXPARAM_Threads                                 1
CPXPARAM_TimeLimit                               200
Found incumbent of value -0.914616 after 0.00 sec. (0.04 ticks)
Tried aggregator 3 times.
MIP Presolve eliminated 87 rows and 35 columns.
MIP Presolve modified 566 coefficients.
Aggregator did 250 substitutions.
Reduced MIP has 377 rows, 382 columns, and 1453 nonzeros.
Reduced MIP has 315 binaries, 37 generals, 0 SOSs, and 0 indicators.
Presolve time = 0.00 sec. (3.25 ticks)
Probing fixed 71 vars, tightened 9 bounds.
Probing time = 0.00 sec. (0.70 ticks)
Cover probing fixed 0 vars, tightened 43 bounds.
Tried aggregator 1 time.
MIP Presolve eliminated 130 rows and 119 columns.
Reduced MIP has 247 rows, 252 columns, and 772 nonzeros.
Reduced MIP has 204 binaries, 20 generals, 0 SOSs, and 0 indicators.
Presolve time = 0.00 sec. (0.84 ticks)
Probing time = 0.00 sec. (0.31 ticks)
Tried aggregator 1 time.
Detecting symmetries...
Reduced MIP has 247 rows, 252 columns, and 772 nonzeros.
Reduced MIP has 204 binaries, 20 generals, 0 SOSs, and 0 indicators.
Presolve time = 0.00 sec. (0.55 ticks)
Probing time = 0.00 sec. (0.31 ticks)
Clique table members: 131.
MIP emphasis: balance optimality and feasibility.
MIP search method: dynamic search.
Parallel mode: none, using 1 thread.
Root relaxation solution time = 0.00 sec. (1.05 ticks)

        Nodes                                         Cuts/
   Node  Left     Objective  IInf  Best Integer    Best Bound    ItCnt     Gap

*     0+    0                           -0.9146      375.1343              --- 
      0     0      174.8468    29       -0.9146      174.8468      114     --- 
*     0+    0                          168.4897      174.8468             3.77%
      0     0      172.3544    29      168.4897      Cuts: 33      155    2.29%
*     0+    0                          168.4910      172.3544             2.29%
      0     0      171.9041    29      168.4910      Cuts: 41      184    2.03%
Detecting symmetries...

Repeating presolve.
Tried aggregator 2 times.
MIP Presolve eliminated 67 rows and 82 columns.
MIP Presolve modified 2 coefficients.
Aggregator did 2 substitutions.
Reduced MIP has 178 rows, 168 columns, and 537 nonzeros.
Reduced MIP has 141 binaries, 8 generals, 0 SOSs, and 0 indicators.
Presolve time = 0.00 sec. (0.41 ticks)
Probing time = 0.00 sec. (0.17 ticks)
Cover probing fixed 0 vars, tightened 6 bounds.
Tried aggregator 1 time.
Detecting symmetries...
MIP Presolve eliminated 9 rows and 0 columns.
MIP Presolve modified 48 coefficients.
Reduced MIP has 169 rows, 168 columns, and 519 nonzeros.
Reduced MIP has 141 binaries, 8 generals, 0 SOSs, and 0 indicators.
Presolve time = 0.00 sec. (0.38 ticks)
Represolve time = 0.00 sec. (1.48 ticks)
Probing time = 0.00 sec. (0.17 ticks)
Clique table members: 77.
MIP emphasis: balance optimality and feasibility.
MIP search method: dynamic search.
Parallel mode: none, using 1 thread.
Root relaxation solution time = 0.00 sec. (1.16 ticks)

        Nodes                                         Cuts/
   Node  Left     Objective  IInf  Best Integer    Best Bound    ItCnt     Gap

*     0+    0                          168.4910      171.9041             2.03%
      0     0      171.9039    37      168.4910      171.9039      296    2.03%
      0     0      170.8689    37      168.4910      Cuts: 35      323    1.41%
      0     0      170.5276    37      168.4910      Cuts: 33      350    1.21%
      0     0      170.5274    37      168.4910      Cuts: 12      362    1.21%
      0     0      170.2642    37      168.4910      Cuts: 13      374    1.05%
      0     0      170.2639    37      168.4910      Cuts: 16      397    1.05%
Detecting symmetries...
      0     2      170.2639    64      168.4910      170.1879      397    1.01%
Elapsed time = 0.05 sec. (39.52 ticks, tree = 0.01 MB, solutions = 3)
*    20+    8                          168.4912      168.6019             0.07%

Clique cuts applied:  3
Cover cuts applied:  3
Implied bound cuts applied:  29
Flow cuts applied:  1
Mixed integer rounding cuts applied:  4
Zero-half cuts applied:  7
Multi commodity flow cuts applied:  2
Lift and project cuts applied:  7
Gomory fractional cuts applied:  8

Root node processing (before b&c):
  Real time             =    0.05 sec. (39.55 ticks)
Sequential b&c:
  Real time             =    0.01 sec. (7.43 ticks)
                          ------------
Total (root+branch&cut) =    0.06 sec. (46.98 ticks)

Solution pool: 4 solutions saved.

MIP - Integer optimal, tolerance (0.0001/1e-06):  Objective =  1.6849119472e+02
Current MIP best bound =  1.6849325576e+02 (gap = 0.00206104, 0.00%)
Solution time =    0.06 sec.  Iterations = 757  Nodes = 33 (9)
Deterministic time = 46.98 ticks  (824.86 ticks/sec)


Incumbent solution
Variable Name           Solution Value
F                           185.000000
f1                            0.938805
f2                           15.570000
y38                           1.000000
y116                          1.000000
y173                          1.000000
y185                          1.000000
y191                          1.000000
y198                          1.000000
y194                          1.000000
y215                          1.000000
y168                          1.000000
y30                           1.000000
s3                            6.000000
s5                            6.000000
s7                            6.000000
s11                           6.000000
s33                           6.000000
s38                           6.776736
s51                           6.000000
s62                           6.000000
s71                           6.000000
s74                           6.000000
s78                           6.000000
s81                           6.000000
s87                           6.000000
s96                           6.000000
s111                          6.000000
s116                          6.133522
s117                          6.000000
s140                          6.000000
s154                          6.000000
s166                          6.000000
s173                          6.513421
s183                          6.000000
s185                          6.666924
s191                          6.162547
s198                          6.445193
s201                          6.000000
s212                          6.000000
s217                          6.000000
s219                          6.000000
s194                          6.476008
s215                          7.013145
s8                            6.140000
s37                           6.160000
s108                          6.220000
s16                           6.240000
s159                          6.260000
s168                          7.243392
s30                           7.252171
x192x168x1                    1.000000
x90x198x1                     1.000000
x90x30x1                      1.000000
x76x198x1                     1.000000
x97x185x1                     1.000000
x104x215x1                    2.000000
x105x38x2                     1.000000
x105x173x2                    1.000000
x112x191x2                    1.000000
x112x194x2                    1.000000
x79x116x2                     1.000000
x25x173x2                     1.000000
x40x168x2                     1.000000
x40x30x2                      1.000000
x79x116x3                     1.000000
x76x191x3                     1.000000
x25x194x3                     1.000000
x66x38x3                      1.000000
x97x185x3                     1.000000
x38x0x2                       1.000000
x38x0x3                       1.000000
x116x0x2                      1.000000
x116x0x3                      1.000000
x173x0x2                      2.000000
x185x0x1                      1.000000
x185x0x3                      1.000000
x191x0x2                      1.000000
x191x0x3                      1.000000
x198x0x1                      2.000000
x194x0x2                      1.000000
x194x0x3                      1.000000
x215x0x1                      2.000000
x168x0x1                      1.000000
x168x0x2                      1.000000
x30x0x1                       1.000000
x30x0x2                       1.000000
s192                          5.735357
z192z168z1                    1.000000
s105                          5.260000
z105z38z2                     1.000000
z105z173z2                    1.000000
s112                          4.801150
z112z173z2                    1.000000
z112z191z2                    1.000000
z112z194z2                    1.000000
s79                           4.758140
z79z116z2                     1.000000
z79z116z3                     1.000000
s90                           4.928860
z90z198z1                     1.000000
z90z30z1                      1.000000
s76                           4.790110
z76z191z3                     1.000000
z76z198z1                     1.000000
s25                           4.937490
z25z173z2                     1.000000
z25z194z3                     1.000000
s66                           4.998610
z66z38z3                      1.000000
s97                           4.873930
z97z185z1                     1.000000
z97z185z3                     1.000000
s40                           5.172270
z40z168z2                     1.000000
z40z30z2                      1.000000
s104                          5.046690
z104z215z1                    1.000000
All other variables in the range 1-671 are 0.
